analyze/results_flowersnark/final_miplib_symretope_if_extended_generating_set_cpx_v802__settings_final_nopeek_norelabel_extend_norestarts__0__neos-525149.mps.gz.sol
solution status: optimal solution found
objective value:                                   61
C0043                                               1 	(obj:1)
C0106                                               1 	(obj:1)
C0172                                               1 	(obj:1)
C0231                                               1 	(obj:1)
C0284                                               1 	(obj:1)
C0361                                               1 	(obj:1)
C0414                                               1 	(obj:1)
C0517                                               1 	(obj:1)
C0529                                               1 	(obj:1)
C0638                                               1 	(obj:1)
C0645                                               1 	(obj:1)
C0723                                               1 	(obj:1)
C0796                                               1 	(obj:1)
C0862                                               1 	(obj:1)
C0881                                               1 	(obj:1)
C0955                                               1 	(obj:1)
C1007                                               1 	(obj:1)
C1104                                               1 	(obj:1)
C1170                                               1 	(obj:1)
C1188                                               1 	(obj:1)
C1269                                               1 	(obj:1)
C1347                                               1 	(obj:1)
C1391                                               1 	(obj:1)
C1445                                               1 	(obj:1)
C1496                                               1 	(obj:1)
C1553                                               1 	(obj:1)
C1645                                               1 	(obj:1)
C1688                                               1 	(obj:1)
C1754                                               1 	(obj:1)
C1829                                               1 	(obj:1)
C1867                                               1 	(obj:1)
C1917                                               1 	(obj:1)
C1970                                               1 	(obj:1)
C2068                                               1 	(obj:1)
C2135                                               1 	(obj:1)
C2177                                               1 	(obj:1)
C2218                                               1 	(obj:1)
C2286                                               1 	(obj:1)
C2379                                               1 	(obj:1)
C2432                                               1 	(obj:1)
C2460                                               1 	(obj:1)
C2539                                               1 	(obj:1)
C2603                                               1 	(obj:1)
C2639                                               1 	(obj:1)
C2715                                               1 	(obj:1)
C2781                                               1 	(obj:1)
C2830                                               1 	(obj:1)
C2892                                               1 	(obj:1)
C2944                                               1 	(obj:1)
C2982                                               1 	(obj:1)
C3080                                               1 	(obj:1)
C3146                                               1 	(obj:1)
C3193                                               1 	(obj:1)
C3258                                               1 	(obj:1)
C3333                                               1 	(obj:1)
C3400                                               1 	(obj:1)
C3422                                               1 	(obj:1)
C3514                                               1 	(obj:1)
C3571                                               1 	(obj:1)
C3636                                               1 	(obj:1)
C0024                                               1 	(obj:1)
