analyze/results_flowersnark/final_miplib_symretope_if_extended_generating_set_cpx_v802__settings_final_nopeek_norelabel_extend_norestarts__0__neos-525149.mps.gz.out
FILENAME:   /home/mcs001/s132664/testsets/IP/miplib2017/neos-525149.mps.gz
SETTINGS:   settings_final_nopeek_norelabel_extend_norestarts
TIMELIMIT:  7200
OUTPUTNAME: final_miplib_symretope_if_extended_generating_set_cpx_v802__settings_final_nopeek_norelabel_extend_norestarts__0__
BINNAME:    bin/sbcs.linux.x86_64.gnu.opt.cpx
BASENAME:   neos-525149.mps.gz
SEED:       0
@01 /home/mcs001/s132664/testsets/IP/miplib2017/neos-525149.mps.gz ===========
@02 neos-525149.mps.gz
@03 1686649309
SCIP version 8.0.2 [precision: 8 byte] [memory: block] [mode: optimized] [LP solver: CPLEX 20.1.0.0] [GitHash: 5f0473c]
Copyright (C) 2002-2022 Konrad-Zuse-Zentrum fuer Informationstechnik Berlin (ZIB)

Symretope propagation methods - (c) Jasper van Doornmalen, Christopher Hojny.
[GitHash: 2fd0484]

reading parameter file <../settings/settings_final_nopeek_norelabel_extend_norestarts.set> ...

Changed settings:
limits/time = 7200
limits/restarts = 0
misc/usesymmetry = 1
constraints/orbisack/sepafreq = -1
constraints/symresack/sepafreq = -1
propagating/symmetry/addsymresacks = TRUE
propagating/symmetry/detectsubgroups = FALSE
propagating/symmetry/relabelsymretopes = 0
propagating/symmetry/extendgenerators = TRUE
propagating/symmetry/ofsymcomptiming = 0
constraints/symretope/sepafreq = -1
constraints/symretope/peek = FALSE


solving problem ...

original problem has 3640 variables (3600 bin, 0 int, 0 impl, 40 cont) and 144120 constraints
presolving:
(round 1, fast)       0 del vars, 0 del conss, 0 add conss, 40 chg bounds, 0 chg sides, 0 chg coeffs, 0 upgd conss, 0 impls, 120 clqs
(round 2, exhaustive) 0 del vars, 141600 del conss, 0 add conss, 40 chg bounds, 0 chg sides, 0 chg coeffs, 0 upgd conss, 0 impls, 120 clqs
(round 3, exhaustive) 0 del vars, 141600 del conss, 0 add conss, 40 chg bounds, 0 chg sides, 0 chg coeffs, 120 upgd conss, 0 impls, 120 clqs
   (1.1s) probing: 51/3600 (1.4%) - 0 fixings, 0 aggregations, 0 implications, 0 bound changes
   (1.1s) probing aborted: 50/50 successive totally useless probings
   (1.2s) symmetry computation started: requiring (bin +, int +, cont +), (fixed: bin -, int -, cont -)
   (1.3s) symmetry computation finished: 56 generators found (max: 1500, log10 of symmetry group size: 31.8)
(round 4, exhaustive) 60 del vars, 141603 del conss, 279 add conss, 40 chg bounds, 0 chg sides, 0 chg coeffs, 120 upgd conss, 0 impls, 120 clqs
(round 5, fast)       64 del vars, 141604 del conss, 279 add conss, 40 chg bounds, 0 chg sides, 0 chg coeffs, 120 upgd conss, 0 impls, 120 clqs
(round 6, medium)     97 del vars, 141604 del conss, 279 add conss, 40 chg bounds, 0 chg sides, 0 chg coeffs, 120 upgd conss, 0 impls, 120 clqs
(round 7, fast)       97 del vars, 141609 del conss, 279 add conss, 40 chg bounds, 0 chg sides, 0 chg coeffs, 120 upgd conss, 0 impls, 120 clqs
(round 8, medium)     119 del vars, 141609 del conss, 279 add conss, 41 chg bounds, 0 chg sides, 0 chg coeffs, 120 upgd conss, 0 impls, 120 clqs
(round 9, medium)     131 del vars, 141609 del conss, 279 add conss, 41 chg bounds, 0 chg sides, 0 chg coeffs, 120 upgd conss, 0 impls, 120 clqs
(round 10, medium)     135 del vars, 141609 del conss, 279 add conss, 41 chg bounds, 0 chg sides, 0 chg coeffs, 120 upgd conss, 0 impls, 120 clqs
(round 11, exhaustive) 135 del vars, 141634 del conss, 279 add conss, 41 chg bounds, 0 chg sides, 0 chg coeffs, 120 upgd conss, 0 impls, 120 clqs
   (2.2s) probing: 1000/3600 (27.8%) - 5 fixings, 0 aggregations, 23713 implications, 0 bound changes
   (3.2s) probing: 2000/3600 (55.6%) - 16 fixings, 0 aggregations, 51840 implications, 0 bound changes
   (4.5s) probing: 3000/3600 (83.3%) - 17 fixings, 0 aggregations, 81380 implications, 0 bound changes
   (5.3s) probing cycle finished: starting next cycle
(round 12, exhaustive) 154 del vars, 141634 del conss, 279 add conss, 41 chg bounds, 0 chg sides, 0 chg coeffs, 120 upgd conss, 106 impls, 100874 clqs
   (6.6s) probing: 1000/3450 (29.0%) - 26 fixings, 0 aggregations, 108342 implications, 0 bound changes
(round 13, exhaustive) 179 del vars, 141635 del conss, 279 add conss, 43 chg bounds, 0 chg sides, 0 chg coeffs, 120 upgd conss, 111 impls, 122352 clqs
   (7.9s) probing: 2000/3450 (58.0%) - 45 fixings, 0 aggregations, 125760 implications, 0 bound changes
(round 14, exhaustive) 204 del vars, 141635 del conss, 279 add conss, 43 chg bounds, 0 chg sides, 0 chg coeffs, 120 upgd conss, 115 impls, 138709 clqs
(round 15, exhaustive) 204 del vars, 141639 del conss, 279 add conss, 44 chg bounds, 4 chg sides, 0 chg coeffs, 120 upgd conss, 115 impls, 138709 clqs
   (9.4s) probing: 3000/3450 (87.0%) - 74 fixings, 0 aggregations, 143362 implications, 0 bound changes
(round 16, exhaustive) 229 del vars, 141639 del conss, 279 add conss, 44 chg bounds, 4 chg sides, 0 chg coeffs, 120 upgd conss, 121 impls, 143895 clqs
(round 17, exhaustive) 254 del vars, 141639 del conss, 279 add conss, 44 chg bounds, 4 chg sides, 0 chg coeffs, 120 upgd conss, 129 impls, 143813 clqs
   (10.1s) probing cycle finished: starting next cycle
   (11.4s) probing: 1000/3346 (29.9%) - 125 fixings, 0 aggregations, 158833 implications, 0 bound changes
   (13.1s) probing: 2000/3346 (59.8%) - 134 fixings, 0 aggregations, 172149 implications, 0 bound changes
   (14.9s) probing: 3000/3346 (89.7%) - 137 fixings, 0 aggregations, 185035 implications, 0 bound changes
(round 18, exhaustive) 272 del vars, 141639 del conss, 279 add conss, 45 chg bounds, 4 chg sides, 0 chg coeffs, 120 upgd conss, 165 impls, 178020 clqs
   (15.6s) probing cycle finished: starting next cycle
   (15.9s) probing: 200/3332 (6.0%) - 137 fixings, 0 aggregations, 189595 implications, 0 bound changes
   (15.9s) probing aborted: 1000/1000 successive useless probings
presolving (19 rounds: 19 fast, 16 medium, 12 exhaustive):
 272 deleted vars, 141639 deleted constraints, 279 added constraints, 46 tightened bounds, 0 added holes, 4 changed sides, 0 changed coefficients
 169 implications, 179358 cliques
presolved problem has 3372 variables (3332 bin, 0 int, 40 impl, 0 cont) and 2760 constraints
    120 constraints of type <setppc>
   2364 constraints of type <linear>
    154 constraints of type <orbisack>
     49 constraints of type <orbitope>
     73 constraints of type <symretope>
transformed objective value is always integral (scale: 1)
Presolving Time: 15.52

 time | node  | left  |LP iter|LP it/n|mem/heur|mdpt |vars |cons |rows |cuts |sepa|confs|strbr|  dualbound   | primalbound  |  gap   | compl. 
p16.3s|     1 |     0 |     0 |     - |shiftand|   0 |3372 |2827 |2539 |   0 |  0 |  68 |   0 | 9.000000e+00 | 2.703600e+04 |  Large | unknown
 16.4s|     1 |     0 |   339 |     - |   338M |   0 |3372 |2827 |2539 |   0 |  0 |  68 |   0 | 6.000000e+01 | 2.703600e+04 |  Large | unknown
 16.9s|     1 |     0 |   497 |     - |   339M |   0 |3372 |2830 |2564 |  26 |  1 |  71 |   0 | 6.000000e+01 | 2.703600e+04 |  Large | unknown
 17.0s|     1 |     0 |   664 |     - |   340M |   0 |3372 |2837 |2578 |  40 |  2 |  78 |   0 | 6.000000e+01 | 2.703600e+04 |  Large | unknown
 17.1s|     1 |     0 |   777 |     - |   340M |   0 |3372 |2839 |2596 |  58 |  3 |  80 |   0 | 6.000000e+01 | 2.703600e+04 |  Large | unknown
 17.3s|     1 |     0 |   891 |     - |   340M |   0 |3372 |2839 |2599 |  77 |  4 |  81 |   0 | 6.000000e+01 | 2.703600e+04 |  Large | unknown
 17.4s|     1 |     0 |   992 |     - |   340M |   0 |3372 |2840 |2605 |  83 |  5 |  82 |   0 | 6.000000e+01 | 2.703600e+04 |  Large | unknown
 17.5s|     1 |     0 |  1093 |     - |   342M |   0 |3372 |2846 |2618 |  96 |  6 |  88 |   0 | 6.000000e+01 | 2.703600e+04 |  Large | unknown
 17.6s|     1 |     0 |  1164 |     - |   342M |   0 |3372 |2854 |2625 | 103 |  7 |  96 |   0 | 6.000000e+01 | 2.703600e+04 |  Large | unknown
 17.7s|     1 |     0 |  1225 |     - |   342M |   0 |3372 |2856 |2630 | 108 |  8 |  98 |   0 | 6.000000e+01 | 2.703600e+04 |  Large | unknown
 17.8s|     1 |     0 |  1293 |     - |   343M |   0 |3372 |2858 |2643 | 121 |  9 | 100 |   0 | 6.000000e+01 | 2.703600e+04 |  Large | unknown
 18.0s|     1 |     0 |  1327 |     - |   343M |   0 |3372 |2859 |2591 | 132 | 10 | 101 |   0 | 6.000000e+01 | 2.703600e+04 |  Large | unknown
 18.1s|     1 |     0 |  1406 |     - |   343M |   0 |3372 |2864 |2601 | 142 | 11 | 106 |   0 | 6.000000e+01 | 2.703600e+04 |  Large | unknown
d18.3s|     1 |     0 |  2324 |     - |farkasdi|   0 |3372 |2864 |2601 |   0 | 11 | 109 |   0 | 6.000000e+01 | 6.100000e+01 |   1.67%| unknown
 18.5s|     1 |     0 |  2650 |     - |   345M |   0 |3372 |1992 |2570 | 142 | 11 |1618 |   0 | 6.000000e+01 | 6.100000e+01 |   1.67%| unknown
 time | node  | left  |LP iter|LP it/n|mem/heur|mdpt |vars |cons |rows |cuts |sepa|confs|strbr|  dualbound   | primalbound  |  gap   | compl. 
 18.6s|     1 |     0 |  2654 |     - |   345M |   0 |3372 |1992 |1599 | 142 | 11 |1618 |   0 | 6.100000e+01 | 6.100000e+01 |   0.00%| unknown
 18.6s|     1 |     0 |  2654 |     - |   345M |   0 |3372 |1992 |1599 | 142 | 11 |1618 |   0 | 6.100000e+01 | 6.100000e+01 |   0.00%| unknown

SCIP Status        : problem is solved [optimal solution found]
Solving Time (sec) : 18.56
Solving Nodes      : 1
Primal Bound       : +6.10000000000000e+01 (3 solutions)
Dual Bound         : +6.10000000000000e+01
Gap                : 0.00 %
SCIP Status        : problem is solved [optimal solution found]
Total Time         :      19.93
  solving          :      18.56
  presolving       :      15.52 (included in solving)
  reading          :       1.37
  copying          :       0.02 (2 #copies) (minimal 0.01, maximal 0.01, average 0.01)
Original Problem   :
  Problem name     : neos-525149
  Variables        : 3640 (3600 binary, 0 integer, 0 implicit integer, 40 continuous)
  Constraints      : 144120 initial, 144120 maximal
  Objective        : minimize, 3640 non-zeros (abs.min = 1, abs.max = 1000)
Presolved Problem  :
  Problem name     : t_neos-525149
  Variables        : 3372 (3332 binary, 0 integer, 40 implicit integer, 0 continuous)
  Constraints      : 2760 initial, 2868 maximal
  Objective        : minimize, 2902 non-zeros (abs.min = 1, abs.max = 1000)
  Nonzeros         : 114114 constraint, 359744 clique table
Presolvers         :   ExecTime  SetupTime  Calls  FixedVars   AggrVars   ChgTypes  ChgBounds   AddHoles    DelCons    AddCons   ChgSides   ChgCoefs
  boundshift       :       0.00       0.00      0          0          0          0          0          0          0          0          0          0
  convertinttobin  :       0.00       0.00      0          0          0          0          0          0          0          0          0          0
  domcol           :       0.00       0.00      8          0          0          0          0          0          0          0          0          0
  dualagg          :       0.00       0.00      0          0          0          0          0          0          0          0          0          0
  dualcomp         :       0.00       0.00      0          0          0          0          0          0          0          0          0          0
  dualinfer        :       0.00       0.00      0          0          0          0          0          0          0          0          0          0
  dualsparsify     :       0.01       0.00      1          0          0          0          0          0          0          0          0          0
  gateextraction   :       0.00       0.00      0          0          0          0          0          0          0          0          0          0
  implics          :       0.00       0.00     16          0          0          0          0          0          0          0          0          0
  inttobinary      :       0.00       0.00      0          0          0          0          0          0          0          0          0          0
  qpkktref         :       0.00       0.00      0          0          0          0          0          0          0          0          0          0
  redvub           :       0.00       0.00      0          0          0          0          0          0          0          0          0          0
  sparsify         :       0.06       0.00      2          0          0          0          0          0          0          0          0          0
  stuffing         :       0.00       0.00      0          0          0          0          0          0          0          0          0          0
  trivial          :       0.00       0.00     19          4          0          0          0          0          0          0          0          0
  tworowbnd        :       0.00       0.00      0          0          0          0          0          0          0          0          0          0
  dualfix          :       0.00       0.00     19          0          0          0          0          0          0          0          0          0
  genvbounds       :       0.00       0.00      0          0          0          0          0          0          0          0          0          0
  probing          :      14.40       0.00      8        137          0          0          0          0          0          0          0          0
  pseudoobj        :       0.00       0.00      0          0          0          0          0          0          0          0          0          0
  symmetry         :       0.19       0.00      1         60          0          0          0          0          3        279          0          0
  vbounds          :       0.11       0.00      5          0          0          0          0          0          0          0          0          0
  setppc           :       0.01       0.00     40          0          0          0          0          0          0          0          0          0
  linear           :       0.57       0.19     31          0          0          0         46          0     141636          0          4          0
  orbisack         :       0.00       0.00      7          0          0          0          0          0          0          0          0          0
  orbitope         :       0.00       0.00     13         71          0          0          0          0          0          0          0          0
  symretope        :       0.00       0.00      7          0          0          0          0          0          0          0          0          0
  logicor          :       0.00       0.00      0          0          0          0          0          0          0          0          0          0
  benders          :       0.00       0.00      0          0          0          0          0          0          0          0          0          0
  components       :       0.01       0.00      1          0          0          0          0          0          0          0          0          0
  root node        :          -          -      -       1662          -          -       1662          -          -          -          -          -
Constraints        :     Number  MaxNumber  #Separate #Propagate    #EnfoLP    #EnfoRelax  #EnfoPS    #Check   #ResProp    Cutoffs    DomReds       Cuts    Applied      Conss   Children
  benderslp        :          0          0          0          0          0          0          0         13          0          0          0          0          0          0          0
  integral         :          0          0          0          0          0          0          0         13          0          0          0          0          0          0          0
  setppc           :        120+       147         11      23155          0          0          0          7       1685        152          1          3          0          0          0
  linear           :       2364       2364         11      23002          0          0          0          3          0          0          0          0          0          0          0
  orbisack         :        154        154          0         53          0          0          0          3        319          5          0          0          0          0          0
  orbitope         :         49         49          0      22899          0          0          0          3       5913         26         34          0          0          0          0
  symretope        :         73         73          0        183          0          0          0          3         61          1          0          0          0          0          0
  logicor          :          0+        84         11         90          0          0          0          0          0          0          0          3          3          0          0
  benders          :          0          0          0          0          0          0          0          4          0          0          0          0          0          0          0
  countsols        :          0          0          0          0          0          0          0          4          0          0          0          0          0          0          0
  components       :          0          0          0          0          0          0          0          0          0          0          0          0          0          0          0
Constraint Timings :  TotalTime  SetupTime   Separate  Propagate     EnfoLP     EnfoPS     EnfoRelax   Check    ResProp    SB-Prop
  benderslp        :       0.00       0.00       0.00       0.00       0.00       0.00       0.00       0.00       0.00       0.00
  integral         :       0.00       0.00       0.00       0.00       0.00       0.00       0.00       0.00       0.00       0.00
  setppc           :       0.17       0.00       0.00       0.16       0.00       0.00       0.00       0.00       0.00       0.00
  linear           :       1.13       0.19       0.01       0.93       0.00       0.00       0.00       0.00       0.00       0.00
  orbisack         :       0.01       0.00       0.00       0.01       0.00       0.00       0.00       0.00       0.00       0.00
  orbitope         :       1.66       0.00       0.00       1.64       0.00       0.00       0.00       0.00       0.02       0.00
  symretope        :       0.02       0.00       0.00       0.02       0.00       0.00       0.00       0.00       0.00       0.00
  logicor          :       0.00       0.00       0.00       0.00       0.00       0.00       0.00       0.00       0.00       0.00
  benders          :       0.00       0.00       0.00       0.00       0.00       0.00       0.00       0.00       0.00       0.00
  countsols        :       0.00       0.00       0.00       0.00       0.00       0.00       0.00       0.00       0.00       0.00
  components       :       0.00       0.00       0.00       0.00       0.00       0.00       0.00       0.00       0.00       0.00
Propagators        : #Propagate   #ResProp    Cutoffs    DomReds
  dualfix          :          5          0          0          0
  genvbounds       :          0          0          0          0
  nlobbt           :          0          0          0          0
  obbt             :          0          0          0          0
  probing          :          0          0          0          0
  pseudoobj        :         20          0          0          4
  redcost          :         14          0          0         97
  rootredcost      :          0          0          0          0
  symmetry         :          0          0          0          0
  vbounds          :        569          0          0          0
Propagator Timings :  TotalTime  SetupTime   Presolve  Propagate    ResProp    SB-Prop
  dualfix          :       0.00       0.00       0.00       0.00       0.00       0.00
  genvbounds       :       0.00       0.00       0.00       0.00       0.00       0.00
  nlobbt           :       0.00       0.00       0.00       0.00       0.00       0.00
  obbt             :       0.00       0.00       0.00       0.00       0.00       0.00
  probing          :      14.40       0.00      14.40       0.00       0.00       0.00
  pseudoobj        :       0.13       0.00       0.00       0.13       0.00       0.00
  redcost          :       0.01       0.00       0.00       0.01       0.00       0.00
  rootredcost      :       0.00       0.00       0.00       0.00       0.00       0.00
  symmetry         :       0.19       0.00       0.19       0.00       0.00       0.00
  vbounds          :       0.11       0.00       0.11       0.00       0.00       0.00
Orbital fixing     :
  vars fixed to 0  :          0
  vars fixed to 1  :          0
Conflict Analysis  :       Time      Calls    Success    DomReds  Conflicts   Literals    Reconvs ReconvLits   Dualrays   Nonzeros   LP Iters   (pool size: [10000,10000])
  propagation      :       0.03        173         37          -        415      139.8          0        0.0          -          -          -
  infeasible LP    :       0.00          0          0          -          0        0.0          0        0.0          0        0.0          0
  bound exceed. LP :       0.03          1       1505          -          5       31.0          0        0.0       1504        1.0          0
  strong branching :       0.00          0          0          -          0        0.0          0        0.0          -          -          0
  pseudo solution  :       0.00          0          0          -          0        0.0          0        0.0          -          -          -
  applied globally :       0.04          -          -       1504        114       59.1          -          -       1504          -          -
  applied locally  :          -          -          -          0          0        0.0          -          -          0          -          -
Separators         :   ExecTime  SetupTime      Calls  RootCalls    Cutoffs    DomReds  FoundCuts ViaPoolAdd  DirectAdd    Applied ViaPoolApp  DirectApp      Conss
  cut pool         :       0.00          -         21         21          -          -        766        335          -          -          -          -          -    (maximal pool size:        766)
  aggregation      :       0.04       0.00         11         11          0          0         21         18          0          0          0          0          0
  > cmir           :          -          -          -          -          -          -          -         17          0          0          0          0          -
  > flowcover      :          -          -          -          -          -          -          -          1          0          0          0          0          -
  > knapsackcover  :          -          -          -          -          -          -          -          0          0          0          0          0          -
  cgmip            :       0.00       0.00          0          0          0          0          0          0          0          0          0          0          0
  clique           :       0.33       0.00         11         11          0          0         63          9          0          1          1          0          0
  closecuts        :       0.00       0.00          0          0          0          0          0          0          0          0          0          0          0
  convexproj       :       0.00       0.00          0          0          0          0          0          0          0          0          0          0          0
  disjunctive      :       0.00       0.00          0          0          0          0          0          0          0          0          0          0          0
  eccuts           :       0.00       0.00          0          0          0          0          0          0          0          0          0          0          0
  gauge            :       0.00       0.00          0          0          0          0          0          0          0          0          0          0          0
  gomory           :       0.28       0.00         10         10          0          0        161          5          0          1          1          0          0
  > gomorymi       :          -          -          -          -          -          -          -          0          0          0          0          0          -
  > strongcg       :          -          -          -          -          -          -          -          5          0          1          1          0          -
  impliedbounds    :       0.07       0.00         11         11          0          8        496        295          0        131        131          0          0
  interminor       :       0.00       0.00          0          0          0          0          0          0          0          0          0          0          0
  intobj           :       0.00       0.00          0          0          0          0          0          0          0          0          0          0          0
  mcf              :       0.00       0.00          1          1          0          0          0          0          0          0          0          0          0
  minor            :       0.00       0.00          0          0          0          0          0          0          0          0          0          0          0
  mixing           :       0.00       0.00         11         11          0          0          0          0          0          0          0          0          0
  oddcycle         :       0.00       0.00          0          0          0          0          0          0          0          0          0          0          0
  rapidlearning    :       0.00       0.00          0          0          0          0          0          0          0          0          0          0          0
  rlt              :       0.00       0.00         10         10          0          0          0          0          0          0          0          0          0
  zerohalf         :       0.02       0.00         11         11          0          0         25          8          0          6          6          0          0
Cutselectors       :   ExecTime  SetupTime      Calls  RootCalls   Selected     Forced   Filtered  RootSelec   RootForc   RootFilt 
  hybrid           :       0.00       0.00         11         11        142          0        199        142          0        199
Pricers            :   ExecTime  SetupTime      Calls       Vars
  problem variables:       0.00          -          0          0
Branching Rules    :   ExecTime  SetupTime   BranchLP  BranchExt   BranchPS    Cutoffs    DomReds       Cuts      Conss   Children
  allfullstrong    :       0.00       0.00          0          0          0          0          0          0          0          0
  cloud            :       0.00       0.00          0          0          0          0          0          0          0          0
  distribution     :       0.00       0.00          0          0          0          0          0          0          0          0
  fullstrong       :       0.00       0.00          0          0          0          0          0          0          0          0
  inference        :       0.00       0.00          0          0          0          0          0          0          0          0
  leastinf         :       0.00       0.00          0          0          0          0          0          0          0          0
  lookahead        :       0.00       0.00          0          0          0          0          0          0          0          0
  mostinf          :       0.00       0.00          0          0          0          0          0          0          0          0
  multaggr         :       0.00       0.00          0          0          0          0          0          0          0          0
  nodereopt        :       0.00       0.00          0          0          0          0          0          0          0          0
  pscost           :       0.00       0.00          0          0          0          0          0          0          0          0
  random           :       0.00       0.00          0          0          0          0          0          0          0          0
  relpscost        :       0.00       0.00          0          0          0          0          0          0          0          0
  vanillafullstrong:       0.00       0.00          0          0          0          0          0          0          0          0
Primal Heuristics  :   ExecTime  SetupTime      Calls      Found       Best
  LP solutions     :       0.00          -          -          0          0
  relax solutions  :       0.00          -          -          0          0
  pseudo solutions :       0.00          -          -          0          0
  strong branching :       0.00          -          -          0          0
  actconsdiving    :       0.00       0.00          0          0          0
  adaptivediving   :       0.00       0.00          0          0          0
  alns             :       0.03       0.00          1          0          0
  bound            :       0.00       0.00          0          0          0
  clique           :       0.05       0.00          1          0          0
  coefdiving       :       0.00       0.00          0          0          0
  completesol      :       0.00       0.00          0          0          0
  conflictdiving   :       0.04       0.00          1          0          0
  crossover        :       0.00       0.00          0          0          0
  dins             :       0.00       0.00          0          0          0
  distributiondivin:       0.00       0.00          0          0          0
  dps              :       0.00       0.00          0          0          0
  dualval          :       0.00       0.00          0          0          0
  farkasdiving     :       0.23       0.00          1          1          1
  feaspump         :       0.05       0.00          1          1          0
  fixandinfer      :       0.00       0.00          0          0          0
  fracdiving       :       0.00       0.00          0          0          0
  gins             :       0.00       0.00          0          0          0
  guideddiving     :       0.00       0.00          0          0          0
  indicator        :       0.00       0.00          0          0          0
  intdiving        :       0.00       0.00          0          0          0
  intshifting      :       0.00       0.00          0          0          0
  linesearchdiving :       0.00       0.00          0          0          0
  localbranching   :       0.00       0.00          0          0          0
  locks            :       0.09       0.00          1          0          0
  lpface           :       0.00       0.00          0          0          0
  mpec             :       0.00       0.00          0          0          0
  multistart       :       0.00       0.00          0          0          0
  mutation         :       0.00       0.00          0          0          0
  nlpdiving        :       0.00       0.00          0          0          0
  objpscostdiving  :       0.00       0.00          0          0          0
  octane           :       0.00       0.00          0          0          0
  ofins            :       0.00       0.00          0          0          0
  oneopt           :       0.00       0.00          1          0          0
  padm             :       0.00       0.00          0          0          0
  proximity        :       0.00       0.00          0          0          0
  pscostdiving     :       0.00       0.00          0          0          0
  randrounding     :       0.15       0.00         12          0          0
  rens             :       0.03       0.00          1          0          0
  reoptsols        :       0.00       0.00          0          0          0
  repair           :       0.00       0.00          0          0          0
  rins             :       0.00       0.00          0          0          0
  rootsoldiving    :       0.00       0.00          0          0          0
  rounding         :       0.00       0.00         12          0          0
  shiftandpropagate:       0.05       0.00          1          1          1
  shifting         :       0.01       0.00         12          0          0
  simplerounding   :       0.00       0.00          0          0          0
  subnlp           :       0.00       0.00          0          0          0
  trivial          :       0.00       0.00          2          0          0
  trivialnegation  :       0.00       0.00          0          0          0
  trustregion      :       0.00       0.00          0          0          0
  trysol           :       0.00       0.00          0          0          0
  twoopt           :       0.00       0.00          0          0          0
  undercover       :       0.00       0.00          0          0          0
  vbounds          :       0.09       0.00          1          0          0
  veclendiving     :       0.00       0.00          0          0          0
  zeroobj          :       0.00       0.00          0          0          0
  zirounding       :       0.00       0.00          1          0          0
  other solutions  :          -          -          -          0          -
LP                 :       Time      Calls Iterations  Iter/call   Iter/sec  Time-0-It Calls-0-It    ItLimit
  primal LP        :       0.04          2          0       0.00       0.00       0.04          2
  dual LP          :       0.11         16       1413      94.20   13053.96       0.00          1
  lex dual LP      :       0.00          0          0       0.00          -
  barrier LP       :       0.00          0          0       0.00          -       0.00          0
  resolve instable :       0.00          0          0       0.00          -
  diving/probing LP:       0.17        112       1241      11.08    7130.34
  strong branching :       0.00          0          0       0.00          -          -          -          0
    (at root node) :          -          0          0       0.00          -
  conflict analysis:       0.00          0          0       0.00          -
B&B Tree           :
  number of runs   :          1
  nodes            :          1 (0 internal, 1 leaves)
  feasible leaves  :          0
  infeas. leaves   :          1
  objective leaves :          0
  nodes (total)    :          1 (0 internal, 1 leaves)
  nodes left       :          0
  max depth        :          0
  max depth (total):          0
  backtracks       :          0 (0.0%)
  early backtracks :          0 (0.0%)
  nodes exc. ref.  :          0 (0.0%)
  delayed cutoffs  :          0
  repropagations   :          0 (0 domain reductions, 0 cutoffs)
  avg switch length:       2.00
  switching time   :       0.00
Root Node          :
  First LP value   : +6.00000000000000e+01
  First LP Iters   :        339 (13828.83 Iter/sec)
  First LP Time    :       0.02
  Final Dual Bound : +6.10000000000000e+01
  Final Root Iters :       1413
  Root LP Estimate :                     -
Solution           :
  Solutions found  :          3 (2 improvements)
  First Solution   : +2.70360000000000e+04   (in run 1, after 1 nodes, 16.26 seconds, depth 61, found by <shiftandpropagate>)
  Gap First Sol.   :  300300.00 %
  Gap Last Sol.    :       1.67 %
  Primal Bound     : +6.10000000000000e+01   (in run 1, after 1 nodes, 18.30 seconds, depth 108, found by <farkasdiving>)
  Dual Bound       : +6.10000000000000e+01
  Gap              :       0.00 %
Integrals          :      Total       Avg%
  primal-dual      :    1829.93      98.59
  primal-ref       :          -          - (not evaluated)
  dual-ref         :          -          - (not evaluated)
written solution information to file <results/final_miplib_symretope_if_extended_generating_set_cpx_v802__settings_final_nopeek_norelabel_extend_norestarts__0__neos-525149.mps.gz.sol>
@04 1686649329
